c File: data_files/evolved_graphs/g7296.col
c
c Auto generated graph
c
p edge 100 29
e 1 62
e 1 71
e 2 45
e 3 53
e 4 10
e 5 59
e 8 46
e 9 100
e 11 23
e 12 60
e 14 43
e 15 87
e 16 25
e 17 55
e 17 74
e 18 61
e 20 44
e 21 33
e 21 68
e 22 52
e 24 26
e 31 67
e 35 62
e 38 40
e 47 93
e 49 51
e 54 76
e 57 58
e 70 78
